letting numberLocations be  18
letting costs be function (
(0,0) --> 0,
(0,1) --> 14,
(0,2) --> 19,
(0,3) --> 33,
(0,4) --> 22,
(0,5) --> 23,
(0,6) --> 12,
(0,7) --> 22,
(0,8) --> 32,
(0,9) --> 32,
(0,10) --> 21,
(0,11) --> 28,
(0,12) --> 30,
(0,13) --> 31,
(0,14) --> 30,
(0,15) --> 32,
(0,16) --> 39,
(0,17) --> 44,
(0,18) --> 16,
(1,0) --> 14,
(1,1) --> 0,
(1,2) --> 15,
(1,3) --> 19,
(1,4) --> 12,
(1,5) --> 24,
(1,6) --> 12,
(1,7) --> 19,
(1,8) --> 21,
(1,9) --> 27,
(1,10) --> 7,
(1,11) --> 19,
(1,12) --> 16,
(1,13) --> 33,
(1,14) --> 17,
(1,15) --> 31,
(1,16) --> 27,
(1,17) --> 31,
(1,18) --> 19,
(2,0) --> 19,
(2,1) --> 15,
(2,2) --> 0,
(2,3) --> 21,
(2,4) --> 26,
(2,5) --> 10,
(2,6) --> 7,
(2,7) --> 4,
(2,8) --> 17,
(2,9) --> 13,
(2,10) --> 16,
(2,11) --> 33,
(2,12) --> 25,
(2,13) --> 18,
(2,14) --> 29,
(2,15) --> 16,
(2,16) --> 24,
(2,17) --> 30,
(2,18) --> 9,
(3,0) --> 33,
(3,1) --> 19,
(3,2) --> 21,
(3,3) --> 0,
(3,4) --> 21,
(3,5) --> 31,
(3,6) --> 25,
(3,7) --> 23,
(3,8) --> 8,
(3,9) --> 24,
(3,10) --> 12,
(3,11) --> 25,
(3,12) --> 9,
(3,13) --> 37,
(3,14) --> 16,
(3,15) --> 32,
(3,16) --> 10,
(3,17) --> 12,
(3,18) --> 30,
(4,0) --> 22,
(4,1) --> 12,
(4,2) --> 26,
(4,3) --> 21,
(4,4) --> 0,
(4,5) --> 36,
(4,6) --> 24,
(4,7) --> 30,
(4,8) --> 26,
(4,9) --> 37,
(4,10) --> 12,
(4,11) --> 7,
(4,12) --> 13,
(4,13) --> 44,
(4,14) --> 9,
(4,15) --> 42,
(4,16) --> 31,
(4,17) --> 33,
(4,18) --> 30,
(5,0) --> 23,
(5,1) --> 24,
(5,2) --> 10,
(5,3) --> 31,
(5,4) --> 36,
(5,5) --> 0,
(5,6) --> 13,
(5,7) --> 8,
(5,8) --> 25,
(5,9) --> 13,
(5,10) --> 26,
(5,11) --> 43,
(5,12) --> 35,
(5,13) --> 8,
(5,14) --> 39,
(5,15) --> 9,
(5,16) --> 32,
(5,17) --> 38,
(5,18) --> 7,
(6,0) --> 12,
(6,1) --> 12,
(6,2) --> 7,
(6,3) --> 25,
(6,4) --> 24,
(6,5) --> 13,
(6,6) --> 0,
(6,7) --> 10,
(6,8) --> 23,
(6,9) --> 20,
(6,10) --> 16,
(6,11) --> 31,
(6,12) --> 26,
(6,13) --> 21,
(6,14) --> 28,
(6,15) --> 21,
(6,16) --> 30,
(6,17) --> 35,
(6,18) --> 7,
(7,0) --> 22,
(7,1) --> 19,
(7,2) --> 4,
(7,3) --> 23,
(7,4) --> 30,
(7,5) --> 8,
(7,6) --> 10,
(7,7) --> 0,
(7,8) --> 18,
(7,9) --> 10,
(7,10) --> 19,
(7,11) --> 37,
(7,12) --> 28,
(7,13) --> 15,
(7,14) --> 32,
(7,15) --> 12,
(7,16) --> 24,
(7,17) --> 30,
(7,18) --> 9,
(8,0) --> 32,
(8,1) --> 21,
(8,2) --> 17,
(8,3) --> 8,
(8,4) --> 26,
(8,5) --> 25,
(8,6) --> 23,
(8,7) --> 18,
(8,8) --> 0,
(8,9) --> 17,
(8,10) --> 15,
(8,11) --> 32,
(8,12) --> 17,
(8,13) --> 31,
(8,14) --> 23,
(8,15) --> 25,
(8,16) --> 7,
(8,17) --> 13,
(8,18) --> 26,
(9,0) --> 32,
(9,1) --> 27,
(9,2) --> 13,
(9,3) --> 24,
(9,4) --> 37,
(9,5) --> 13,
(9,6) --> 20,
(9,7) --> 10,
(9,8) --> 17,
(9,9) --> 0,
(9,10) --> 25,
(9,11) --> 44,
(9,12) --> 31,
(9,13) --> 16,
(9,14) --> 37,
(9,15) --> 9,
(9,16) --> 21,
(9,17) --> 27,
(9,18) --> 18,
(10,0) --> 21,
(10,1) --> 7,
(10,2) --> 16,
(10,3) --> 12,
(10,4) --> 12,
(10,5) --> 26,
(10,6) --> 16,
(10,7) --> 19,
(10,8) --> 15,
(10,9) --> 25,
(10,10) --> 0,
(10,11) --> 19,
(10,12) --> 10,
(10,13) --> 34,
(10,14) --> 13,
(10,15) --> 31,
(10,16) --> 21,
(10,17) --> 24,
(10,18) --> 22,
(11,0) --> 28,
(11,1) --> 19,
(11,2) --> 33,
(11,3) --> 25,
(11,4) --> 7,
(11,5) --> 43,
(11,6) --> 31,
(11,7) --> 37,
(11,8) --> 32,
(11,9) --> 44,
(11,10) --> 19,
(11,11) --> 0,
(11,12) --> 16,
(11,13) --> 51,
(11,14) --> 10,
(11,15) --> 49,
(11,16) --> 35,
(11,17) --> 36,
(11,18) --> 38,
(12,0) --> 30,
(12,1) --> 16,
(12,2) --> 25,
(12,3) --> 9,
(12,4) --> 13,
(12,5) --> 35,
(12,6) --> 26,
(12,7) --> 28,
(12,8) --> 17,
(12,9) --> 31,
(12,10) --> 10,
(12,11) --> 16,
(12,12) --> 0,
(12,13) --> 43,
(12,14) --> 6,
(12,15) --> 38,
(12,16) --> 19,
(12,17) --> 20,
(12,18) --> 32,
(13,0) --> 31,
(13,1) --> 33,
(13,2) --> 18,
(13,3) --> 37,
(13,4) --> 44,
(13,5) --> 8,
(13,6) --> 21,
(13,7) --> 15,
(13,8) --> 31,
(13,9) --> 16,
(13,10) --> 34,
(13,11) --> 51,
(13,12) --> 43,
(13,13) --> 0,
(13,14) --> 47,
(13,15) --> 7,
(13,16) --> 36,
(13,17) --> 42,
(13,18) --> 15,
(14,0) --> 30,
(14,1) --> 17,
(14,2) --> 29,
(14,3) --> 16,
(14,4) --> 9,
(14,5) --> 39,
(14,6) --> 28,
(14,7) --> 32,
(14,8) --> 23,
(14,9) --> 37,
(14,10) --> 13,
(14,11) --> 10,
(14,12) --> 6,
(14,13) --> 47,
(14,14) --> 0,
(14,15) --> 43,
(14,16) --> 26,
(14,17) --> 26,
(14,18) --> 35,
(15,0) --> 32,
(15,1) --> 31,
(15,2) --> 16,
(15,3) --> 32,
(15,4) --> 42,
(15,5) --> 9,
(15,6) --> 21,
(15,7) --> 12,
(15,8) --> 25,
(15,9) --> 9,
(15,10) --> 31,
(15,11) --> 49,
(15,12) --> 38,
(15,13) --> 7,
(15,14) --> 43,
(15,15) --> 0,
(15,16) --> 30,
(15,17) --> 36,
(15,18) --> 16,
(16,0) --> 39,
(16,1) --> 27,
(16,2) --> 24,
(16,3) --> 10,
(16,4) --> 31,
(16,5) --> 32,
(16,6) --> 30,
(16,7) --> 24,
(16,8) --> 7,
(16,9) --> 21,
(16,10) --> 21,
(16,11) --> 35,
(16,12) --> 19,
(16,13) --> 36,
(16,14) --> 26,
(16,15) --> 30,
(16,16) --> 0,
(16,17) --> 6,
(16,18) --> 33,
(17,0) --> 44,
(17,1) --> 31,
(17,2) --> 30,
(17,3) --> 12,
(17,4) --> 33,
(17,5) --> 38,
(17,6) --> 35,
(17,7) --> 30,
(17,8) --> 13,
(17,9) --> 27,
(17,10) --> 24,
(17,11) --> 36,
(17,12) --> 20,
(17,13) --> 42,
(17,14) --> 26,
(17,15) --> 36,
(17,16) --> 6,
(17,17) --> 0,
(17,18) --> 38,
(18,0) --> 16,
(18,1) --> 19,
(18,2) --> 9,
(18,3) --> 30,
(18,4) --> 30,
(18,5) --> 7,
(18,6) --> 7,
(18,7) --> 9,
(18,8) --> 26,
(18,9) --> 18,
(18,10) --> 22,
(18,11) --> 38,
(18,12) --> 32,
(18,13) --> 15,
(18,14) --> 35,
(18,15) --> 16,
(18,16) --> 33,
(18,17) --> 38,
(18,18) --> 0)
letting orderWeights be function (
1 --> 19
,
2 --> 30
,
3 --> 16
,
4 --> 23
,
5 --> 11
,
6 --> 31
,
7 --> 15
,
8 --> 28
,
9 --> 14
,
10 --> 8
,
11 --> 7
,
12 --> 14
,
13 --> 19
,
14 --> 11
,
15 --> 26
,
16 --> 17
,
17 --> 6
,
18 --> 15
)
letting vehicleCapacity be 160
